# Objective value = 2.9583541527983539e+02
x[0] 0
x[1] 1
x[2] 1
x[3] 0
x[4] 1
x[5] 1
x[6] 0
x[7] 9.9999989298363989e-01
x[8] 0
x[9] 1
x[10] 1
x[11] 0
x[12] 0
x[13] 1
x[14] 0
x[15] 1
x[16] 1
x[17] 0
x[18] 0
x[19] 1
x[20] 9.9999989298363989e-01
x[21] 0
x[22] 1
x[23] 0
x[24] 0
x[25] 0
x[26] 0
x[27] 1
x[28] 1
x[29] 1
x[30] 1
x[31] 1
x[32] 1
x[33] 1
x[34] 1
x[35] 0
x[36] 0
x[37] 0
x[38] 1
x[39] 0
x[40] 0
x[41] 0
x[42] 1
x[43] 0
x[44] 0
x[45] 0
x[46] 0
x[47] 0
x[48] 0
x[49] 0
x[50] 1
x[51] 0
x[52] 9.9999989298363989e-01
x[53] 1
x[54] 1
x[55] 1
x[56] 0
x[57] 1
x[58] 1
x[59] 1
x[60] 0
x[61] 0
x[62] 1
x[63] 1
x[64] 1.0897057624765623e-07
x[65] 0
x[66] 0
x[67] 1
x[68] 0
x[69] 1
x[70] 1
x[71] 0
x[72] 1
x[73] 1
x[74] 0
x[75] 1
x[76] 1
x[77] 0
x[78] 0
x[79] 0
x[80] 1
x[81] 1
x[82] 1
x[83] 1.0947293983782666e-07
x[84] 1
x[85] 0
x[86] 1
x[87] 1
x[88] 0
x[89] 1
x[90] 0
x[91] 1
x[92] 0
x[93] 1
x[94] 1
x[95] 1
x[96] 1
x[97] 1
x[98] 0
x[99] 1
x[100] 0
x[101] 1
x[102] 9.9999989465030648e-01
x[103] 0
x[104] 0
x[105] 1
x[106] 0
x[107] 0
x[108] 0
x[109] 0
x[110] 1.1018651121980494e-07
x[111] 0
x[112] 0
x[113] 0
x[114] 0
x[115] 1
x[116] 0
x[117] 1
x[118] 1
x[119] 1
x[120] 0
x[121] 1
x[122] 1
x[123] 1.1017630880158951e-07
x[124] 0
x[125] 0
x[126] 0
x[127] 0
x[128] 1.1015486815665174e-07
x[129] 0
x[130] 1
x[131] 0
x[132] 0
x[133] 1
x[134] 1
x[135] 1
x[136] 1
x[137] 1
x[138] 0
x[139] 0
x[140] 1
x[141] 0
x[142] 1
x[143] 0
x[144] 1
x[145] 0
x[146] 1
x[147] 0
x[148] 0
x[149] 1
x[150] 0
x[151] 0
x[152] 0
x[153] 0
x[154] 1
x[155] 1
x[156] 0
x[157] 0
x[158] 1
x[159] 1
x[160] 0
x[161] 1
x[162] 0
x[163] 1
x[164] 0
x[165] 0
x[166] 0
x[167] 0
x[168] 9.9999989298363989e-01
x[169] 1
x[170] 1
x[171] 1
x[172] 1
x[173] 0
x[174] 1
x[175] 0
x[176] 1
x[177] 0
x[178] 1
x[179] 0
x[180] 0
x[181] 0
x[182] 0
x[183] 1
x[184] 0
x[185] 1
x[186] 0
x[187] 0
x[188] 1
x[189] 1
x[190] 0
x[191] 0
x[192] 1
x[193] 0
x[194] 1
x[195] 0
x[196] 0
x[197] 0
x[198] 0
x[199] 0
x[200] 1
x[201] 9.9999989298363978e-01
x[202] 9.9999989298363989e-01
x[203] 0
x[204] 1
x[205] 1
x[206] 0
x[207] 1
x[208] 1
x[209] 0
x[210] 1
x[211] 1
x[212] 0
x[213] 1
x[214] 0
x[215] 0
x[216] 1
x[217] 0
x[218] 1
x[219] 0
x[220] 1
x[221] 1
x[222] 0
x[223] 0
x[224] 0
x[225] 0
x[226] 0
x[227] 1
x[228] 1
x[229] 1
x[230] 0
x[231] 0
x[232] 0
x[233] 1
x[234] 1
x[235] 0
x[236] 0
x[237] 1.0000001091574182e+00
x[238] 1
x[239] 1.1020697747321233e-07
x[240] 1
x[241] 0
x[242] 1
x[243] 0
x[244] 0
x[245] 1
x[246] 1
x[247] 0
x[248] 1
x[249] 1
x[250] 1
x[251] 1
x[252] 1.0994424658259629e-07
x[253] 0
x[254] 0
x[255] 1
x[256] 9.9999989465030648e-01
x[257] 0
x[258] 1
x[259] 1.1003397137283402e-07
x[260] 0
x[261] 1.1011684947406699e-07
x[262] 0
x[263] 1
x[264] 0
x[265] 0
x[266] 1
x[267] 1
x[268] 0
x[269] 1
x[270] 0
x[271] 1
x[272] 1
x[273] 1
x[274] 0
x[275] 0
x[276] 1
x[277] 0
x[278] 0
x[279] 1
x[280] 1
x[281] 1
x[282] 1
x[283] 9.9999989298363989e-01
x[284] 1
x[285] 1
x[286] 1.8375519480624787e-07
x[287] 1.0719248080375566e-07
x[288] 1
x[289] 0
x[290] 9.9999989465030648e-01
x[291] 1
x[292] 1
x[293] 0
x[294] 1
x[295] 0
x[296] 1
x[297] 1
x[298] 0
x[299] 1
x[300] 0
x[301] 0
x[302] 0
x[303] 0
x[304] 1
x[305] 0
x[306] 0
x[307] 0
x[308] 0
x[309] 1
x[310] 0
x[311] 0
x[312] 1
x[313] 1.1017138182856858e-07
x[314] 1
x[315] 1
x[316] 0
x[317] 1.1000302708132836e-07
x[318] 0
x[319] 0
x[320] 1
x[321] 0
x[322] 1
x[323] 1
x[324] 1
x[325] 0
x[326] 0
x[327] 0
x[328] 0
x[329] 0
x[330] 9.9999988965030639e-01
x[331] 1
x[332] 1
x[333] 1
x[334] 0
x[335] 1.1819659084370016e-07
x[336] 1
x[337] 0
x[338] 1
x[339] 1
x[340] 0
x[341] 0
x[342] 0
x[343] 1
x[344] 0
x[345] 0
x[346] 1
x[347] 1
x[348] 1
x[349] 0
x[350] 1
x[351] 0
x[352] 1
x[353] 0
x[354] 1
x[355] 0
x[356] 0
x[357] 1
x[358] 1
x[359] 1
x[360] 0
x[361] 0
x[362] 0
x[363] 0
x[364] 1
x[365] 1
x[366] 1
x[367] 1
x[368] 1
x[369] 1
x[370] 1
x[371] 0
x[372] 1
x[373] 1
x[374] 1
x[375] 0
x[376] 1
x[377] 0
x[378] 0
x[379] 0
x[380] 0
x[381] 0
x[382] 1
x[383] 1
x[384] 1
x[385] 1
x[386] 0
x[387] 0
x[388] 0
x[389] 1
x[390] 0
x[391] 0
x[392] 1
x[393] 0
x[394] 6.9699881777783883e-07
x[395] 1
x[396] 1
x[397] 1
x[398] 1
x[399] 1
x[400] 1
x[401] 1
x[402] 9.9999989298363989e-01
x[403] 9.9999981941717675e-01
x[404] 1
x[405] 1
x[406] 1
x[407] 0
x[408] 0
x[409] 1
x[410] 1
x[411] 1
x[412] 0
x[413] 1
x[414] 1
x[415] 1.1010958750676408e-07
x[416] 0
x[417] 0
x[418] 1
x[419] 0
x[420] 9.9999989479302254e-01
x[421] 0
x[422] 1
x[423] 0
x[424] 1
x[425] 1.1022592843405382e-07
x[426] 1
x[427] 0
x[428] 0
x[429] 1
x[430] 1
x[431] 1
x[432] 0
x[433] 0
x[434] 0
x[435] 0
x[436] 1
x[437] 1
x[438] 1
x[439] 1
x[440] 1.0837284109461161e-07
x[441] 1
x[442] 1
x[443] 0
x[444] 1
x[445] 0
x[446] 0
x[447] 1
x[448] 1
x[449] 0
x[450] 1
x[451] 1
x[452] 1
x[453] 0
x[454] 1
x[455] 0
x[456] 9.9999989298363989e-01
x[457] 1
x[458] 1
x[459] 0
x[460] 1
x[461] 0
x[462] 0
x[463] 9.9999989298363989e-01
x[464] 0
x[465] 1
x[466] 1
x[467] 0
x[468] 0
x[469] 1
x[470] 0
x[471] 1
x[472] 1
x[473] 1
x[474] 0
x[475] 1
x[476] 0
x[477] 1
x[478] 0
x[479] 0
x[480] 1.1014577148831709e-07
x[481] 1
x[482] 9.9999989298363989e-01
x[483] 1
x[484] 0
x[485] 0
x[486] 0
x[487] 1
x[488] 1
x[489] 1
x[490] 1.1022536342750101e-07
x[491] 1
x[492] 0
x[493] 1
x[494] 1
x[495] 0
x[496] 1
x[497] 0
x[498] 0
x[499] 0
x[500] 0
x[501] 0
x[502] 1.0992683389906811e-07
x[503] 1
x[504] 1
x[505] 1
x[506] 1
x[507] 9.9999988965030651e-01
x[508] 1
x[509] 0
x[510] 0
x[511] 1
x[512] 0
x[513] 0
x[514] 0
x[515] 0
x[516] 0
x[517] 0
x[518] 0
x[519] 0
x[520] 0
x[521] 1
x[522] 0
x[523] 1
x[524] 1
x[525] 0
x[526] 1
x[527] 1
x[528] 9.9999989322374583e-01
x[529] 0
x[530] 0
x[531] 1
x[532] 1
x[533] 1
x[534] 0
x[535] 0
x[536] 0
x[537] 0
x[538] 1
x[539] 1
x[540] 0
x[541] 1
x[542] 1
x[543] 1
x[544] 1
x[545] 0
x[546] 0
x[547] 0
x[548] 1
x[549] 1
x[550] 1
x[551] 1
x[552] 0
x[553] 0
x[554] 1
x[555] 0
x[556] 1
x[557] 0
x[558] 1
x[559] 0
x[560] 0
x[561] 1
x[562] 1
x[563] 1.1020919185023456e-07
x[564] 0
x[565] 1
x[566] 0
x[567] 0
x[568] 1
x[569] 1
x[570] 1
x[571] 1
x[572] 1
x[573] 0
x[574] 0
x[575] 1
x[576] 1
x[577] 0
x[578] 0
x[579] 1
x[580] 0
x[581] 9.9999989298363989e-01
x[582] 1
x[583] 1
x[584] 1
x[585] 0
x[586] 1
x[587] 1
x[588] 0
x[589] 1
x[590] 0
x[591] 1
x[592] 0
x[593] 9.9999988965030651e-01
x[594] 0
x[595] 1
x[596] 0
x[597] 1
x[598] 0
x[599] 0
x[600] 1
x[601] 0
x[602] 1
x[603] 1
x[604] 1
x[605] 1
x[606] 0
x[607] 0
x[608] 1
x[609] 1.1021749091133409e-07
x[610] 1
x[611] 1
x[612] 0
x[613] 1
x[614] 0
x[615] 0
x[616] 1.1016724498894725e-07
x[617] 1
x[618] 0
x[619] 0
x[620] 1
x[621] 1.1012574072705490e-07
x[622] 1
x[623] 1
x[624] 1
x[625] 0
x[626] 1
x[627] 0
x[628] 1.1017048230251640e-07
x[629] 0
x[630] 1.1008016440264187e-07
x[631] 0
x[632] 0
x[633] 0
x[634] 0
x[635] 0
x[636] 0
x[637] 0
x[638] 1
x[639] 0
x[640] 0
x[641] 0
x[642] 1
x[643] 1
x[644] 1
x[645] 1
x[646] 0
x[647] 0
x[648] 0
x[649] 0
x[650] 0
x[651] 0
x[652] 1
x[653] 1
x[654] 0
x[655] 1
x[656] 0
x[657] 1
x[658] 0
x[659] 0
x[660] 9.9999988965030651e-01
x[661] 1
x[662] 0
x[663] 0
x[664] 1
x[665] 1
x[666] 1
x[667] 0
x[668] 0
x[669] 1
x[670] 1.1021409691678209e-07
x[671] 0
x[672] 0
x[673] 1
x[674] 0
x[675] 0
x[676] 1.1008537216376176e-07
x[677] 1
x[678] 9.9999988965030651e-01
x[679] 0
x[680] 1
x[681] 1
x[682] 9.9999930445193985e-01
x[683] 1
x[684] 1.1001441362158303e-07
x[685] 0
x[686] 1.1018494133962828e-07
x[687] 0
x[688] 1
x[689] 0
x[690] 0
x[691] 0
x[692] 1
x[693] 1
x[694] 1
x[695] 1
x[696] 0
x[697] 1
x[698] 0
x[699] 1
x[700] 0
x[701] 0
x[702] 0
x[703] 1
x[704] 0
x[705] -1.0149887527663168e-07
x[706] 0
x[707] 1
x[708] 0
x[709] 0
x[710] 0
x[711] 1
x[712] 1
x[713] 1
x[714] 1
x[715] 1
x[716] 1
x[717] 0
x[718] 0
x[719] 1
x[720] 0
x[721] 1
x[722] 0
x[723] 1
x[724] 0
x[725] 0
x[726] 0
x[727] 1
x[728] 0
x[729] 0
x[730] 0
x[731] 0
x[732] 0
x[733] 0
x[734] 0
x[735] 0
x[736] 1
x[737] 0
x[738] 1
x[739] 1
x[740] 0
x[741] 1
x[742] 1
x[743] 1
x[744] 0
x[745] 0
x[746] 0
x[747] 1
x[748] 0
x[749] 0
x[750] 1
x[751] 0
x[752] 0
x[753] 0
x[754] 1
x[755] 0
x[756] 0
x[757] 9.9999989465030648e-01
x[758] 0
x[759] 0
x[760] 1
x[761] 1
x[762] 1
x[763] 0
x[764] 0
x[765] 1
x[766] 1
x[767] 9.9999989465030648e-01
x[768] 0
x[769] 0
x[770] 0
x[771] 1
x[772] 1
x[773] 0
x[774] 1
x[775] 1
x[776] 0
x[777] 1
x[778] 1
x[779] 1
x[780] 0
x[781] 1
x[782] 1
x[783] 1
x[784] 0
x[785] 1.1008200285533355e-07
x[786] 0
x[787] 1
x[788] 0
x[789] 0
x[790] 0
x[791] 1
x[792] 0
x[793] 1
x[794] 9.9999989340649942e-01
x[795] 0
x[796] 0
x[797] 1
x[798] 1
x[799] 1
x[800] 1
x[801] 0
x[802] 1
x[803] 1
x[804] 0
x[805] 0
x[806] 0
x[807] 0
x[808] 1
x[809] 0
x[810] 0
x[811] 0
x[812] 1
x[813] 0
x[814] 1
x[815] 1
x[816] 1
x[817] 1
x[818] 0
x[819] 0
x[820] 0
x[821] 9.9999988965030639e-01
x[822] 0
x[823] 0
x[824] 1
x[825] 1
x[826] 0
x[827] 0
x[828] 0
x[829] 1
x[830] 0
x[831] 9.9999989298363989e-01
x[832] 0
x[833] 1
x[834] 1
x[835] 1
x[836] 0
x[837] 1
x[838] 1
x[839] 1.1005780719765307e-07
x[840] 0
x[841] 0
x[842] 1
x[843] 1
x[844] 0
x[845] 0
x[846] 0
x[847] 0
x[848] 0
x[849] 6.9862291576367906e-07
x[850] 0
x[851] 0
x[852] 1
x[853] 0
x[854] 0
x[855] 1
x[856] 0
x[857] 1
x[858] 1.8372820513031384e-07
x[859] 1
x[860] 0
x[861] 1
x[862] 0
x[863] 0
x[864] 0
x[865] 0
x[866] 1
x[867] 1
x[868] 0
x[869] 1
x[870] 1
x[871] 1
x[872] 1
x[873] 0
x[874] 0
x[875] 1
x[876] 0
x[877] 0
x[878] 1
x[879] 0
x[880] 9.9999989316608839e-01
x[881] 9.9999989465030636e-01
x[882] 1
x[883] 1
x[884] 1
x[885] 1
x[886] 0
x[887] 0
x[888] 0
x[889] 1
x[890] 1
x[891] 1
x[892] 0
x[893] 9.9999988965030651e-01
x[894] 1
x[895] 1.1019741994469380e-07
x[896] 0
x[897] 1
x[898] 0
x[899] 1
x[900] 1
x[901] 0
x[902] 0
x[903] 1
x[904] 0
x[905] 0
x[906] 1
x[907] 0
x[908] 0
x[909] 0
x[910] 0
x[911] 0
x[912] 0
x[913] 0
x[914] 1
x[915] 9.9999989314682214e-01
x[916] 1
x[917] 0
x[918] 1
x[919] 0
x[920] 0
x[921] 1
x[922] 1
x[923] 0
x[924] 0
x[925] 1
x[926] 1
x[927] 1
x[928] 1
x[929] 1.1011673263868154e-07
x[930] 1
x[931] 0
x[932] 1
x[933] 0
x[934] 0
x[935] 0
x[936] 0
x[937] 1
x[938] 1
x[939] 1
x[940] 0
x[941] 1
x[942] 1
x[943] 0
x[944] 0
x[945] 1
x[946] 0
x[947] 1
x[948] 0
x[949] 1
x[950] 1
x[951] 0
x[952] 1
x[953] 1
x[954] 0
x[955] 1
x[956] 0
x[957] 1
x[958] 0
x[959] 0
x[960] 0
x[961] 1
x[962] 0
x[963] 0
x[964] 1.1017960292083498e-07
x[965] 0
x[966] 9.9999989331891970e-01
x[967] 0
x[968] 1
x[969] 1
x[970] 1
x[971] 1
x[972] 1
x[973] 1
x[974] 1
x[975] 0
x[976] 0
x[977] 0
x[978] 1
x[979] 1
x[980] 1
x[981] 0
x[982] 1
x[983] 0
x[984] 0
x[985] 1
x[986] 1
x[987] 1
x[988] 0
x[989] 0
x[990] 1
x[991] 0
x[992] 0
x[993] 0
x[994] 0
x[995] 0
x[996] 0
x[997] 1
x[998] 0
x[999] 0
